input/instance-11.txt
d 14
t 6 10 2 2 10 2 3 8 3 2 6 
l 2 
tau 0 0 0 0 0 0 0 0 0 0 0
tmax 10 
k 7 
a 8
b 5
c 9
