logs/instance-11.log

Gurobi 11.0.0 (mac64[arm], Java) logging started Wed May 15 02:34:40 2024

Set parameter Username
Academic license - for non-commercial use only - expires 2025-03-01
Set parameter Method to value 0
Set parameter Presolve to value 0
Set parameter Heuristics to value 0
Gurobi Optimizer version 11.0.0 build v11.0.0rc2 (mac64[arm] - Darwin 23.4.0 23E224)

CPU model: Apple M1
Thread count: 8 physical cores, 8 logical processors, using up to 8 threads

Optimize a model with 347 rows, 308 columns and 1036 nonzeros
Model fingerprint: 0xb61fa878
Variable types: 0 continuous, 308 integer (154 binary)
Coefficient statistics:
  Matrix range     [1e+00, 2e+01]
  Objective range  [1e+00, 1e+00]
  Bounds range     [1e+00, 1e+00]
  RHS range        [2e+00, 1e+01]
Variable types: 0 continuous, 308 integer (154 binary)

Root relaxation: objective 9.400000e+01, 93 iterations, 0.00 seconds (0.00 work units)

    Nodes    |    Current Node    |     Objective Bounds      |     Work
 Expl Unexpl |  Obj  Depth IntInf | Incumbent    BestBd   Gap | It/Node Time

     0     0   94.00000    0    7          -   94.00000      -     -    0s
     0     0   93.00000    0   21          -   93.00000      -     -    0s
H    0     0                      93.0000000   93.00000  0.00%     -    0s
     0     0   93.00000    0   21   93.00000   93.00000  0.00%     -    0s

Cutting planes:
  Gomory: 6
  Implied bound: 8
  MIR: 9
  StrongCG: 2
  Flow cover: 10

Explored 1 nodes (188 simplex iterations) in 0.01 seconds (0.00 work units)
Thread count was 8 (of 8 available processors)

Solution count 1: 93 

Optimal solution found (tolerance 1.00e-04)
Best objective 9.300000000000e+01, best bound 9.300000000000e+01, gap 0.0000%

Gurobi 11.0.0 (mac64[arm], Java) logging started Wed May 15 02:41:14 2024

Set parameter Username
Academic license - for non-commercial use only - expires 2025-03-01
Set parameter Method to value 0
Set parameter Presolve to value 0
Set parameter Heuristics to value 0
Gurobi Optimizer version 11.0.0 build v11.0.0rc2 (mac64[arm] - Darwin 23.4.0 23E224)

CPU model: Apple M1
Thread count: 8 physical cores, 8 logical processors, using up to 8 threads

Optimize a model with 347 rows, 308 columns and 1036 nonzeros
Model fingerprint: 0xb61fa878
Variable types: 0 continuous, 308 integer (154 binary)
Coefficient statistics:
  Matrix range     [1e+00, 2e+01]
  Objective range  [1e+00, 1e+00]
  Bounds range     [1e+00, 1e+00]
  RHS range        [2e+00, 1e+01]
Variable types: 0 continuous, 308 integer (154 binary)

Root relaxation: objective 9.400000e+01, 93 iterations, 0.00 seconds (0.00 work units)

    Nodes    |    Current Node    |     Objective Bounds      |     Work
 Expl Unexpl |  Obj  Depth IntInf | Incumbent    BestBd   Gap | It/Node Time

     0     0   94.00000    0    7          -   94.00000      -     -    0s
     0     0   93.00000    0   21          -   93.00000      -     -    0s
H    0     0                      93.0000000   93.00000  0.00%     -    0s
     0     0   93.00000    0   21   93.00000   93.00000  0.00%     -    0s

Cutting planes:
  Gomory: 6
  Implied bound: 8
  MIR: 9
  StrongCG: 2
  Flow cover: 10

Explored 1 nodes (188 simplex iterations) in 0.01 seconds (0.00 work units)
Thread count was 8 (of 8 available processors)

Solution count 1: 93 

Optimal solution found (tolerance 1.00e-04)
Best objective 9.300000000000e+01, best bound 9.300000000000e+01, gap 0.0000%

Gurobi 11.0.0 (mac64[arm], Java) logging started Wed May 15 02:45:21 2024

Set parameter Username
Academic license - for non-commercial use only - expires 2025-03-01
Set parameter Method to value 0
Set parameter Presolve to value 0
Set parameter Heuristics to value 0
Gurobi Optimizer version 11.0.0 build v11.0.0rc2 (mac64[arm] - Darwin 23.4.0 23E224)

CPU model: Apple M1
Thread count: 8 physical cores, 8 logical processors, using up to 8 threads

Optimize a model with 347 rows, 308 columns and 1036 nonzeros
Model fingerprint: 0xb61fa878
Variable types: 0 continuous, 308 integer (154 binary)
Coefficient statistics:
  Matrix range     [1e+00, 2e+01]
  Objective range  [1e+00, 1e+00]
  Bounds range     [1e+00, 1e+00]
  RHS range        [2e+00, 1e+01]
Variable types: 0 continuous, 308 integer (154 binary)

Root relaxation: objective 9.400000e+01, 93 iterations, 0.00 seconds (0.00 work units)

    Nodes    |    Current Node    |     Objective Bounds      |     Work
 Expl Unexpl |  Obj  Depth IntInf | Incumbent    BestBd   Gap | It/Node Time

     0     0   94.00000    0    7          -   94.00000      -     -    0s
     0     0   93.00000    0   21          -   93.00000      -     -    0s
H    0     0                      93.0000000   93.00000  0.00%     -    0s
     0     0   93.00000    0   21   93.00000   93.00000  0.00%     -    0s

Cutting planes:
  Gomory: 6
  Implied bound: 8
  MIR: 9
  StrongCG: 2
  Flow cover: 10

Explored 1 nodes (188 simplex iterations) in 0.01 seconds (0.00 work units)
Thread count was 8 (of 8 available processors)

Solution count 1: 93 

Optimal solution found (tolerance 1.00e-04)
Best objective 9.300000000000e+01, best bound 9.300000000000e+01, gap 0.0000%
